node 0 w: 6.16, h: 12.95
node 1 w: 4.9, h: 12.95
node 2 w: 8.2026-06-20 18:56:09 - INFO - Set parameter WLSAccessID
2026-06-20 18:56:09 - INFO - Set parameter WLSSecret
2026-06-20 18:56:09 - INFO - Set parameter LicenseID to value 2756663
2026-06-20 18:56:09 - INFO - Academic license 2756663 - for non-commercial use only - registered to hu___@sjtu.edu.cn
2026-06-20 18:56:09 - INFO - Set parameter TimeLimit to value 300
2026-06-20 18:56:09 - INFO - Set parameter MIPGap to value 0
2026-06-20 18:56:09 - INFO - Set parameter MIPFocus to value 3
2026-06-20 18:56:09 - INFO - Set parameter Heuristics to value 0.5
2026-06-20 18:56:09 - INFO - Set parameter LogToConsole to value 1
2026-06-20 18:56:09 - INFO - Gurobi Optimizer version 13.0.1 build v13.0.1rc0 (linux64 - "Ubuntu 20.04.6 LTS")
2026-06-20 18:56:09 - INFO - 
2026-06-20 18:56:09 - INFO - CPU model: AMD Ryzen 9 9950X3D 16-Core Processor, instruction set [SSE2|AVX|AVX2|AVX512]
2026-06-20 18:56:09 - INFO - Thread count: 14 physical cores, 28 logical processors, using up to 28 threads
2026-06-20 18:56:09 - INFO - 
2026-06-20 18:56:09 - INFO - Non-default parameters:
2026-06-20 18:56:09 - INFO - TimeLimit  300
2026-06-20 18:56:09 - INFO - MIPGap  0
2026-06-20 18:56:09 - INFO - Heuristics  0.5
2026-06-20 18:56:09 - INFO - MIPFocus  3
2026-06-20 18:56:09 - INFO - 
2026-06-20 18:56:09 - INFO - Academic license 2756663 - for non-commercial use only - registered to hu___@sjtu.edu.cn
2026-06-20 18:56:09 - INFO - Optimize a model with 1470 rows, 672 columns and 5013 nonzeros (Min)
2026-06-20 18:56:09 - INFO - Model fingerprint: 0xeb23d0f9
2026-06-20 18:56:09 - INFO - Model has 4 linear objective coefficients
2026-06-20 18:56:09 - INFO - Variable types: 269 continuous, 403 integer (403 binary)
2026-06-20 18:56:09 - INFO - Coefficient statistics:
2026-06-20 18:56:09 - INFO -   Matrix range     [3e-01, 8e+03]
2026-06-20 18:56:09 - INFO -   Objective range  [6e-06, 8e-02]
2026-06-20 18:56:09 - INFO -   Bounds range     [9e-01, 2e+07]
2026-06-20 18:56:09 - INFO -   RHS range        [9e-01, 3e+02]
2026-06-20 18:56:09 - INFO - 
2026-06-20 18:56:09 - INFO - Presolve removed 120 rows and 104 columns
2026-06-20 18:56:09 - INFO - Presolve time: 0.01s
2026-06-20 18:56:09 - INFO - Presolved: 1350 rows, 568 columns, 4744 nonzeros
2026-06-20 18:56:09 - INFO - Variable types: 191 continuous, 377 integer (377 binary)
2026-06-20 18:56:09 - INFO - Root relaxation presolve removed 178 rows and 46 columns
2026-06-20 18:56:09 - INFO - Root relaxation presolved: 1172 rows, 546 columns, 4334 nonzeros
2026-06-20 18:56:09 - INFO - 
2026-06-20 18:56:09 - INFO - 
2026-06-20 18:56:09 - INFO - Root relaxation: objective -2.369946e+01, 290 iterations, 0.00 seconds (0.01 work units)
2026-06-20 18:56:09 - INFO - 
2026-06-20 18:56:09 - INFO -     Nodes    |    Current Node    |     Objective Bounds      |     Work
2026-06-20 18:56:09 - INFO -  Expl Unexpl |  Obj  Depth IntInf | Incumbent    BestBd   Gap | It/Node Time
2026-06-20 18:56:09 - INFO - 
2026-06-20 18:56:09 - INFO -      0     0  -23.69946    0  155          -  -23.69946      -     -    0s
2026-06-20 18:56:09 - INFO -      0     0  -19.79694    0  171          -  -19.79694      -     -    0s
2026-06-20 18:56:09 - INFO -      0     0  -19.79694    0  155          -  -19.79694      -     -    0s
2026-06-20 18:56:09 - INFO -      0     0   -5.46215    0  156          -   -5.46215      -     -    0s
2026-06-20 18:56:09 - INFO -      0     0   -4.29110    0  170          -   -4.29110      -     -    0s
2026-06-20 18:56:09 - INFO -      0     0   -4.29110    0  139          -   -4.29110      -     -    0s
2026-06-20 18:56:09 - INFO -      0     0    1.90787    0  148          -    1.90787      -     -    0s
2026-06-20 18:56:09 - INFO -      0     0    1.90787    0  159          -    1.90787      -     -    0s
2026-06-20 18:56:09 - INFO -      0     0    1.90787    0  151          -    1.90787      -     -    0s
2026-06-20 18:56:09 - INFO -      0     0    1.90787    0  154          -    1.90787      -     -    0s
2026-06-20 18:56:09 - INFO -      0     0    1.90787    0  173          -    1.90787      -     -    0s
2026-06-20 18:56:09 - INFO -      0     0    1.90787    0  170          -    1.90787      -     -    0s
2026-06-20 18:56:09 - INFO -      0     0    1.90787    0  161          -    1.90787      -     -    0s
2026-06-20 18:56:09 - INFO -      0     0    1.92539    0  146          -    1.92539      -     -    0s
2026-06-20 18:56:09 - INFO -      0     0    1.92539    0  152          -    1.92539      -     -    0s
2026-06-20 18:56:09 - INFO -      0     0    1.92539    0  157          -    1.92539      -     -    0s
2026-06-20 18:56:09 - INFO -      0     0    1.92539    0  161          -    1.92539      -     -    0s
2026-06-20 18:56:09 - INFO -      0     0    1.92539    0  166          -    1.92539      -     -    0s
2026-06-20 18:56:09 - INFO -      0     0    1.92539    0  147          -    1.92539      -     -    0s
2026-06-20 18:56:09 - INFO -      0     0    1.92539    0  145          -    1.92539      -     -    0s
2026-06-20 18:56:09 - INFO -      0     0    1.92539    0  131          -    1.92539      -     -    0s
2026-06-20 18:56:09 - INFO -      0     0    1.97703    0  130          -    1.97703      -     -    0s
2026-06-20 18:56:10 - INFO -      0     0    1.97703    0  122          -    1.97703      -     -    1s
2026-06-20 18:56:11 - INFO -      0     2    1.97703    0  122          -    1.97703      -     -    2s
2026-06-20 18:56:14 - INFO -   2060  1968    4.82662   12  142          -    3.21985      -  45.6    5s
2026-06-20 18:56:19 - INFO -   7894  4632    5.67088   25  100          -    4.94848      -  84.5   10s
2026-06-20 18:56:24 - INFO -   9099  5481    6.69258   25   95          -    5.10980      -  88.0   15s
2026-06-20 18:56:29 - INFO -  27540 14421 infeasible   29               -    5.40344      -  66.3   20s
2026-06-20 18:56:34 - INFO -  51910 22271    7.55799   30   78          -    5.69710      -  58.6   25s
2026-06-20 18:56:39 - INFO -  56506 24692    5.79439   33   77          -    5.76779      -  58.9   30s
2026-06-20 18:56:44 - INFO -  76155 29879    6.01196   30   66          -    5.96045      -  57.1   35s
2026-06-20 18:56:49 - INFO -  102557 37086    6.81181   25  111          -    6.14364      -  52.7   40s
2026-06-20 18:56:54 - INFO -  105936 38409    6.54989   35   77          -    6.20072      -  53.1   45s
2026-06-20 18:56:59 - INFO -  128005 43505    8.21385   32   65          -    6.36268      -  52.5   50s
2026-06-20 18:57:05 - INFO -  151829 51188 infeasible   30               -    6.47854      -  50.8   56s
2026-06-20 18:57:09 - INFO -  188185 57426    6.87111   25   84          -    6.65246      -  48.8   60s
2026-06-20 18:57:14 - INFO -  203745 60284    8.08580   33   78          -    6.74278      -  48.8   65s
2026-06-20 18:57:19 - INFO -  232271 65557    6.91559   31   88          -    6.86864      -  48.0   70s
2026-06-20 18:57:24 - INFO -  245690 68062 infeasible   34               -    6.93587      -  47.6   75s
2026-06-20 18:57:29 - INFO -  249165 69523    7.17211   29   73          -    6.94894      -  47.7   80s
2026-06-20 18:57:34 - INFO -  278647 72609    7.14194   30   78          -    7.07037      -  47.7   85s
2026-06-20 18:57:39 - INFO -  312739 78397 infeasible   37               -    7.17604      -  46.7   90s
2026-06-20 18:57:44 - INFO -  319325 79365 infeasible   31               -    7.22484      -  46.8   95s
2026-06-20 18:57:49 - INFO -  325747 79860    7.61200   33   51          -    7.26017      -  46.9  100s
2026-06-20 18:57:54 - INFO -  341610 81361    8.40808   32   61          -    7.31857      -  47.0  105s
2026-06-20 18:57:59 - INFO -  356473 82422    7.50110   29   92          -    7.37357      -  47.1  110s
2026-06-20 18:58:04 - INFO -  377539 83624    7.82786   31   86          -    7.46092      -  47.1  115s
2026-06-20 18:58:09 - INFO -  409681 87085 infeasible   31               -    7.56273      -  46.6  120s
2026-06-20 18:58:14 - INFO -  430705 89353 infeasible   27               -    7.63577      -  46.3  125s
2026-06-20 18:58:19 - INFO -  435923 89461    8.29060   33   70          -    7.66542      -  46.4  130s
2026-06-20 18:58:24 - INFO -  447297 89522    7.77926   31   83          -    7.70654      -  46.5  135s
2026-06-20 18:58:29 - INFO -  463287 89688    8.39468   32   75          -    7.76455      -  46.6  140s
2026-06-20 18:58:34 - INFO -  486721 89887    8.45602   31   50          -    7.85051      -  46.6  145s
2026-06-20 18:58:39 - INFO -  500547 89811    7.96389   32   57          -    7.90797      -  46.7  150s
2026-06-20 18:58:44 - INFO -  532016 91024 infeasible   36               -    8.00518      -  46.4  155s
2026-06-20 18:58:49 - INFO -  534440 91008    9.65055   29   46          -    8.02773      -  46.4  160s
2026-06-20 18:58:54 - INFO -  535727 89685    8.44571   31   80          -    8.03608      -  46.4  165s
2026-06-20 18:58:59 - INFO -  561682 88916 infeasible   32               -    8.11307      -  46.4  170s
2026-06-20 18:59:04 - INFO -  579561 87829 infeasible   28               -    8.19718      -  46.5  175s
2026-06-20 18:59:09 - INFO -  603306 86934 infeasible   31               -    8.28792      -  46.5  180s
2026-06-20 18:59:14 - INFO -  634100 86363 infeasible   35               -    8.38957      -  46.1  185s
2026-06-20 18:59:19 - INFO -  634780 86297 infeasible   34               -    8.40208      -  46.1  190s
2026-06-20 18:59:24 - INFO -  637077 85679    8.61391   30   93          -    8.41627      -  46.2  195s
2026-06-20 18:59:29 - INFO -  654187 83009 infeasible   34               -    8.48066      -  46.2  200s
2026-06-20 18:59:34 - INFO -  680388 79491    9.17324   31   67          -    8.60502      -  46.3  205s
2026-06-20 18:59:39 - INFO -  696446 76536 infeasible   33               -    8.68404      -  46.4  210s
2026-06-20 18:59:44 - INFO -  718302 72354    9.56426   35   38          -    8.79930      -  46.4  215s
2026-06-20 18:59:49 - INFO -  729846 69705 infeasible   28               -    8.86061      -  46.5  220s
2026-06-20 18:59:54 - INFO -  744428 66735    9.13922   38   63          -    8.97872      -  46.5  225s
2026-06-20 19:00:00 - INFO -  745885 65873 infeasible   31               -    8.99087      -  46.6  231s
2026-06-20 19:00:04 - INFO -  755363 62268 infeasible   25               -    9.01741      -  46.6  235s
2026-06-20 19:00:09 - INFO -  778881 55460 infeasible   32               -    9.19584      -  46.7  240s
2026-06-20 19:00:14 - INFO -  801794 47830 infeasible   41               -    9.40501      -  46.7  245s
2026-06-20 19:00:19 - INFO -  815553 42780 infeasible   38               -    9.54437      -  46.7  250s
2026-06-20 19:00:24 - INFO -  838985 32560   12.44668   36   29          -    9.83398      -  46.7  255s
2026-06-20 19:00:29 - INFO -  863936 19159 infeasible   31               -   10.28949      -  46.6  260s
2026-06-20 19:00:34 - INFO -  894836    24 infeasible   34               -   12.59404      -  46.2  265s
2026-06-20 19:00:35 - INFO - 
2026-06-20 19:00:35 - INFO - Cutting planes:
2026-06-20 19:00:35 - INFO -   Learned: 62
2026-06-20 19:00:35 - INFO -   Gomory: 232
2026-06-20 19:00:35 - INFO -   Lift-and-project: 80
2026-06-20 19:00:35 - INFO -   Cover: 34
2026-06-20 19:00:35 - INFO -   Implied bound: 7
2026-06-20 19:00:35 - INFO -   MIR: 115
2026-06-20 19:00:35 - INFO -   Mixing: 3
2026-06-20 19:00:35 - INFO -   StrongCG: 8
2026-06-20 19:00:35 - INFO -   Flow cover: 866
2026-06-20 19:00:35 - INFO -   GUB cover: 1
2026-06-20 19:00:35 - INFO -   Inf proof: 335
2026-06-20 19:00:35 - INFO -   Zero half: 2
2026-06-20 19:00:35 - INFO -   RLT: 11
2026-06-20 19:00:35 - INFO -   Relax-and-lift: 17
2026-06-20 19:00:35 - INFO - 
2026-06-20 19:00:35 - INFO - Explored 894996 nodes (41369100 simplex iterations) in 266.01 seconds (482.36 work units)
2026-06-20 19:00:35 - INFO - Thread count was 28 (of 28 available processors)
2026-06-20 19:00:35 - INFO - 
2026-06-20 19:00:35 - INFO - Solution count 0
2026-06-20 19:00:35 - INFO - 
2026-06-20 19:00:35 - INFO - Model is infeasible or unbounded
2026-06-20 19:00:35 - INFO - Best objective -, best bound -, gap -
2026-06-20 19:00:35 - INFO - Set parameter TimeLimit to value 300
2026-06-20 19:00:35 - INFO - Set parameter MIPGap to value 0.3
2026-06-20 19:00:35 - INFO - Set parameter MIPFocus to value 3
2026-06-20 19:00:35 - INFO - Set parameter Heuristics to value 0.5
2026-06-20 19:00:35 - INFO - Set parameter LogToConsole to value 1
2026-06-20 19:00:35 - INFO - Gurobi Optimizer version 13.0.1 build v13.0.1rc0 (linux64 - "Ubuntu 20.04.6 LTS")
2026-06-20 19:00:35 - INFO - 
2026-06-20 19:00:35 - INFO - CPU model: AMD Ryzen 9 9950X3D 16-Core Processor, instruction set [SSE2|AVX|AVX2|AVX512]
2026-06-20 19:00:35 - INFO - Thread count: 14 physical cores, 28 logical processors, using up to 28 threads
2026-06-20 19:00:35 - INFO - 
2026-06-20 19:00:35 - INFO - Non-default parameters:
2026-06-20 19:00:35 - INFO - TimeLimit  300
2026-06-20 19:00:35 - INFO - MIPGap  0.3
2026-06-20 19:00:35 - INFO - Heuristics  0.5
2026-06-20 19:00:35 - INFO - MIPFocus  3
2026-06-20 19:00:35 - INFO - 
2026-06-20 19:00:35 - INFO - Academic license 2756663 - for non-commercial use only - registered to hu___@sjtu.edu.cn
2026-06-20 19:00:35 - INFO - Optimize a model with 1470 rows, 672 columns and 5013 nonzeros (Min)
2026-06-20 19:00:35 - INFO - Model fingerprint: 0xeb23d0f9
2026-06-20 19:00:35 - INFO - Model has 4 linear objective coefficients
2026-06-20 19:00:35 - INFO - Variable types: 269 continuous, 403 integer (403 binary)
2026-06-20 19:00:35 - INFO - Coefficient statistics:
2026-06-20 19:00:35 - INFO -   Matrix range     [3e-01, 8e+03]
2026-06-20 19:00:35 - INFO -   Objective range  [6e-06, 8e-02]
2026-06-20 19:00:35 - INFO -   Bounds range     [9e-01, 2e+07]
2026-06-20 19:00:35 - INFO -   RHS range        [9e-01, 3e+02]
2026-06-20 19:00:35 - INFO - 
2026-06-20 19:00:35 - INFO - Presolved: 1350 rows, 568 columns, 4744 nonzeros
2026-06-20 19:00:35 - INFO - 
2026-06-20 19:00:35 - INFO - Continuing optimization...
2026-06-20 19:00:35 - INFO - 
2026-06-20 19:00:35 - INFO - 
2026-06-20 19:00:35 - INFO - Cutting planes:
2026-06-20 19:00:35 - INFO -   Learned: 62
2026-06-20 19:00:35 - INFO -   Gomory: 232
2026-06-20 19:00:35 - INFO -   Lift-and-project: 80
2026-06-20 19:00:35 - INFO -   Cover: 34
2026-06-20 19:00:35 - INFO -   Implied bound: 7
2026-06-20 19:00:35 - INFO -   MIR: 115
2026-06-20 19:00:35 - INFO -   Mixing: 3
2026-06-20 19:00:35 - INFO -   StrongCG: 8
2026-06-20 19:00:35 - INFO -   Flow cover: 866
2026-06-20 19:00:35 - INFO -   GUB cover: 1
2026-06-20 19:00:35 - INFO -   Inf proof: 335
2026-06-20 19:00:35 - INFO -   Zero half: 2
2026-06-20 19:00:35 - INFO -   RLT: 11
2026-06-20 19:00:35 - INFO -   Relax-and-lift: 17
2026-06-20 19:00:35 - INFO - 
2026-06-20 19:00:35 - INFO - Explored 894996 nodes (41369100 simplex iterations) in 266.03 seconds (482.36 work units)
2026-06-20 19:00:35 - INFO - Most recent optimization runtime was 0.01 seconds (0.00 work units)
2026-06-20 19:00:35 - INFO - Thread count was 28 (of 28 available processors)
2026-06-20 19:00:35 - INFO - 
2026-06-20 19:00:35 - INFO - Solution count 0
2026-06-20 19:00:35 - INFO - 
2026-06-20 19:00:35 - INFO - Model is infeasible or unbounded
2026-06-20 19:00:35 - INFO - Best objective -, best bound -, gap -
2026-06-20 19:00:35 - INFO - Set parameter TimeLimit to value 3600
2026-06-20 19:00:35 - INFO - Set parameter MIPGap to value 0.8
2026-06-20 19:00:35 - INFO - Set parameter MIPFocus to value 3
2026-06-20 19:00:35 - INFO - Set parameter Heuristics to value 0.5
2026-06-20 19:00:35 - INFO - Set parameter LogToConsole to value 1
2026-06-20 19:00:35 - INFO - Gurobi Optimizer version 13.0.1 build v13.0.1rc0 (linux64 - "Ubuntu 20.04.6 LTS")
2026-06-20 19:00:35 - INFO - 
2026-06-20 19:00:35 - INFO - CPU model: AMD Ryzen 9 9950X3D 16-Core Processor, instruction set [SSE2|AVX|AVX2|AVX512]
2026-06-20 19:00:35 - INFO - Thread count: 14 physical cores, 28 logical processors, using up to 28 threads
2026-06-20 19:00:35 - INFO - 
2026-06-20 19:00:35 - INFO - Non-default parameters:
2026-06-20 19:00:35 - INFO - TimeLimit  3600
2026-06-20 19:00:35 - INFO - MIPGap  0.8
2026-06-20 19:00:35 - INFO - Heuristics  0.5
2026-06-20 19:00:35 - INFO - MIPFocus  3
2026-06-20 19:00:35 - INFO - 
2026-06-20 19:00:35 - INFO - Academic license 2756663 - for non-commercial use only - registered to hu___@sjtu.edu.cn
2026-06-20 19:00:35 - INFO - Optimize a model with 1470 rows, 672 columns and 5013 nonzeros (Min)
2026-06-20 19:00:35 - INFO - Model fingerprint: 0xeb23d0f9
2026-06-20 19:00:35 - INFO - Model has 4 linear objective coefficients
2026-06-20 19:00:35 - INFO - Variable types: 269 continuous, 403 integer (403 binary)
2026-06-20 19:00:35 - INFO - Coefficient statistics:
2026-06-20 19:00:35 - INFO -   Matrix range     [3e-01, 8e+03]
2026-06-20 19:00:35 - INFO -   Objective range  [6e-06, 8e-02]
2026-06-20 19:00:35 - INFO -   Bounds range     [9e-01, 2e+07]
2026-06-20 19:00:35 - INFO -   RHS range        [9e-01, 3e+02]
2026-06-20 19:00:35 - INFO - 
2026-06-20 19:00:35 - INFO - Presolved: 1350 rows, 568 columns, 4744 nonzeros
2026-06-20 19:00:35 - INFO - 
2026-06-20 19:00:35 - INFO - Continuing optimization...
2026-06-20 19:00:35 - INFO - 
2026-06-20 19:00:35 - INFO - 
2026-06-20 19:00:35 - INFO - Cutting planes:
2026-06-20 19:00:35 - INFO -   Learned: 62
2026-06-20 19:00:35 - INFO -   Gomory: 232
2026-06-20 19:00:35 - INFO -   Lift-and-project: 80
2026-06-20 19:00:35 - INFO -   Cover: 34
2026-06-20 19:00:35 - INFO -   Implied bound: 7
2026-06-20 19:00:35 - INFO -   MIR: 115
2026-06-20 19:00:35 - INFO -   Mixing: 3
2026-06-20 19:00:35 - INFO -   StrongCG: 8
2026-06-20 19:00:35 - INFO -   Flow cover: 866
2026-06-20 19:00:35 - INFO -   GUB cover: 1
2026-06-20 19:00:35 - INFO -   Inf proof: 335
2026-06-20 19:00:35 - INFO -   Zero half: 2
2026-06-20 19:00:35 - INFO -   RLT: 11
2026-06-20 19:00:35 - INFO -   Relax-and-lift: 17
2026-06-20 19:00:35 - INFO - 
2026-06-20 19:00:35 - INFO - Explored 894996 nodes (41369100 simplex iterations) in 266.03 seconds (482.37 work units)
2026-06-20 19:00:35 - INFO - Most recent optimization runtime was 0.00 seconds (0.00 work units)
2026-06-20 19:00:35 - INFO - Thread count was 28 (of 28 available processors)
2026-06-20 19:00:35 - INFO - 
2026-06-20 19:00:35 - INFO - Solution count 0
2026-06-20 19:00:35 - INFO - 
2026-06-20 19:00:35 - INFO - Model is infeasible or unbounded
2026-06-20 19:00:35 - INFO - Best objective -, best [EMIB] No feasi2026-06-20 19:00:35 - INFO - 
EMIB returned 0 solution(s) (max 1).
earch failed, no feasible solution
  ✓ EMIB: 0 solution(s)
